Translating instance to solver...

Set parameter TimeLimit to value 28800
Gurobi Optimizer version 11.0.2 build v11.0.2rc0 (linux64 - "Ubuntu 22.04.4 LTS")

CPU model: Intel(R) Xeon(R) Gold 5120 CPU @ 2.20GHz, instruction set [SSE2|AVX|AVX2|AVX512]
Thread count: 28 physical cores, 56 logical processors, using up to 28 threads

Academic license 2463511 - for non-commercial use only - registered to lu___@cefet-rj.br
Optimize a model with 113275 rows, 53993 columns and 256388 nonzeros
Model fingerprint: 0x56a43dd7
Variable types: 1 continuous, 53992 integer (53920 binary)
Coefficient statistics:
  Matrix range     [1e+00, 1e+05]
  Objective range  [3e-01, 8e-01]
  Bounds range     [1e+00, 7e+01]
  RHS range        [1e+00, 7e+01]
Presolve removed 92572 rows and 45510 columns
Presolve time: 1.85s
Presolved: 20703 rows, 8483 columns, 59951 nonzeros
Variable types: 0 continuous, 8483 integer (8412 binary)
Found heuristic solution: objective 38.5123700

Root relaxation: objective 1.223564e+00, 508 iterations, 0.03 seconds (0.04 work units)

    Nodes    |    Current Node    |     Objective Bounds      |     Work
 Expl Unexpl |  Obj  Depth IntInf | Incumbent    BestBd   Gap | It/Node Time

     0     0    1.22356    0   18   38.51237    1.22356  96.8%     -    2s
H    0     0                      36.8564790    1.22356  96.7%     -    2s
     0     0    1.22356    0   15   36.85648    1.22356  96.7%     -    2s
H    0     0                       3.3471280    1.22356  63.4%     -    3s
     0     0    1.22356    0   15    3.34713    1.22356  63.4%     -    3s
     0     0    1.22356    0   30    3.34713    1.22356  63.4%     -    3s
H    0     0                       1.2235640    1.22356  0.00%     -    3s
     0     0    1.22356    0   30    1.22356    1.22356  0.00%     -    3s

Cutting planes:
  Learned: 2
  Gomory: 2
  Implied bound: 11
  MIR: 6
  Zero half: 1
  RLT: 4
  Relax-and-lift: 10

Explored 1 nodes (4028 simplex iterations) in 3.37 seconds (2.72 work units)
Thread count was 28 (of 56 available processors)

Solution count 4: 1.22356 3.34713 36.8565 38.5124 

Optimal solution found (tolerance 1.00e-04)
Best objective 1.223564000000e+00, best bound 1.223564000000e+00, gap 0.0000%

Solver Wallclock Time (for this epsilon): 3.3711562156677246 s
Python wallclock Time (for this epsilon): 12.444007158279419 s


Total Elapsed Time (since program call): 686.2442622184753 s

Results:

I = 1.223564 mA
C = 24.0 points
C ~= 9.600000000000001 km^2

Minimum Epsilon for this instance = 10
Maximum Epsilon for this instance = 100

Current Epsilon = 10


Preprocessing Time (for this epsilon): 0.011875629425048828 s


Updated solution vectors:
sol_I = [-1.223564]
sol_C = [24.0]
sol_eps = [10]
sol_gap = [0.0]
